outputs/case_215.model.txt
capital_adequacy_ratio = 100
improvement_plan_approved_flag = False
improvement_plan_done = False
accelerated_deterioration_flag = False
net_worth_ratio = 5
financial_business_deterioration_flag = False
net_worth = 50
violation_148_2_2 = False
financial_or_business_deterioration = False
capital_significantly_insufficient = False
violation_148_2_1_flag = False
violation_148_3_1_flag = False
violation_148_2_2_flag = False
capital_severely_insufficient = False
capital_severely_insufficient_penalty_condition = False
accelerated_deterioration_or_no_improvement = False
violation_refuse_inspection = False
improvement_plan_completed = False
violation_related_enterprise_report = False
capital_level_final = 0
regulatory_action_required = False
violation_148_1_or_2 = False
capital_insufficient = False
violation_148_3_1 = False
improvement_plan_approved = False
capital_adequate = False
capital_level = 0
violation_148_2_1 = False
violation_no_response_or_false_response = False
violation_148_1_or_2_flag = False
violation_hide_or_destroy_documents = False
violation_148_3_2 = False
penalty = False
violation_148_3_2_flag = False
violation_late_or_false_report = False
no_response_or_false_response = False
hide_or_destroy_documents = False
late_or_false_report = False
refuse_inspection = False
related_enterprise_report_failure = False